Maximize
  8.3682852786988861e-04 Z_603_0_0 + 0.00253750746428395 Z_603_0_1
   + 0.8586695771871238 Z_603_0_2 + 0.00714993312240586 Z_603_0_3
   + 0.0308061536983166 Z_603_0_4 + 0.00737520168760739 Z_603_2_0
   + 0.0549086405549604 Z_603_2_1 + 0.0150998559511541 Z_603_2_2
   + 0.7442552042329285 Z_603_2_3 + 0.0783610975733497 Z_603_2_4
   + 0.1092726096147059 Z_603_3_0 + 0.0780363575337986 Z_603_3_1
   + 0.00182041906293599 Z_603_3_2 + 0.0942222602587903 Z_603_3_3
   + 0.6166483535297692 Z_603_3_4 + 0.00281128676518399 Z_221_0_0
   + 4.2934023525003175e-04 Z_221_0_1 + 0.0366910389527006 Z_221_0_2
   + 0.0378753515812986 Z_221_0_3 + 0.8221929824655668 Z_221_0_4
   + 0.00103876015832669 Z_595_0_0 + 7.9562610000824281e-04 Z_595_0_1
   + 0.00803360238539258 Z_595_0_2 + 0.7278403761538169 Z_595_0_3
   + 0.1622916352024555 Z_595_0_4 + 0.00882420361007793 Z_378_2_0
   + 0.0127457156831825 Z_378_2_1 + 0.06166716145934 Z_378_2_2
   + 6.336853615741152e-04 Z_378_2_3 + 0.8161292338858255 Z_378_2_4
   + 0.0120262091313624 Z_378_0_0 + 0.73095096251661 Z_378_0_1
   + 0.00385467659712382 Z_378_0_2 + 0.00473288604188755 Z_378_0_3
   + 0.1484352657130162 Z_378_0_4 + 7.71365e-05 Z_378_1_0
   + 2.6260984071161861e-04 Z_378_1_1 + 0.0278859361148013 Z_378_1_2
   + 2.0306763388493445e-04 Z_378_1_3 + 0.8715712499037661 Z_378_1_4
   + 0.0120262091313624 Z_378_3_0 + 0.73095096251661 Z_378_3_1
   + 0.00385467659712382 Z_378_3_2 + 0.00473288604188755 Z_378_3_3
   + 0.1484352657130162 Z_378_3_4 + 8.040633564857728e-04 Z_265_0_0
   + 0.00113951213427258 Z_265_0_1 + 0.655248836612214 Z_265_0_2
   + 0.00129235349152123 Z_265_0_3 + 0.2415152344055064 Z_265_0_4
   + 2.7999141179423207e-04 Z_43_0_0 + 0.00219776757060123 Z_43_0_1
   + 0.0232461237442282 Z_43_0_2 + 0.4927357911517371 Z_43_0_3
   + 0.3815403261216391 Z_43_0_4 + 0.00511674070187324 Z_17_0_0
   + 0.8206560810064139 Z_17_0_1 + 0.00169971527909728 Z_17_0_2
   + 0.0116144177677307 Z_17_0_3 + 0.060913045244885 Z_17_0_4
   + 0.012177556784757 Z_304_0_0 + 0.7946034659670235 Z_304_0_1
   + 0.00368793978476184 Z_304_0_2 + 0.0029056372869283 Z_304_0_3
   + 0.0866254001765295 Z_304_0_4 + 8.4600476337986813e-04 Z_206_0_0
   + 0.000722574 Z_206_0_1 + 0.7917651122487842 Z_206_0_2
   + 0.00158288043354682 Z_206_0_3 + 0.1050834285190844 Z_206_0_4
   + 0.00100550893533642 Z_245_0_0 + 0.0012857554471783 Z_245_0_1
   + 0.8291188362129103 Z_245_0_2 + 0.00447110723713136 Z_245_0_3
   + 0.0641187921674436 Z_245_0_4 + 0.1199328054251914 Z_245_3_0
   + 0.016955422500486 Z_245_3_1 + 0.0161917273477001 Z_245_3_2
   + 0.0322524511294192 Z_245_3_3 + 0.7146675935972033 Z_245_3_4
   + 0.0136944507558562 Z_245_2_0 + 0.0762057895860732 Z_245_2_1
   + 0.00157712680260167 Z_245_2_2 + 0.6914517416744665 Z_245_2_3
   + 0.1170708911810025 Z_245_2_4 + 0.000678338 Z_543_0_0
   + 0.00292688629920219 Z_543_0_1 + 0.0251001362960777 Z_543_0_2
   + 0.8171475488030341 Z_543_0_3 + 0.0541470906682413 Z_543_0_4
   + 0.00100550893533642 Z_151_0_0 + 0.0012857554471783 Z_151_0_1
   + 0.8291188362129103 Z_151_0_2 + 0.00447110723713136 Z_151_0_3
   + 0.0641187921674436 Z_151_0_4 + 0.00258425082560813 Z_241_0_0
   + 0.00129054382642953 Z_241_0_1 + 0.013246860238046 Z_241_0_2
   + 0.769326186213507 Z_241_0_3 + 0.1135521588964093 Z_241_0_4
   + 0.00612037715864408 Z_303_0_0 + 0.7970555333639195 Z_303_0_1
   + 0.0229893806433574 Z_303_0_2 + 0.0188900578858806 Z_303_0_3
   + 0.0549446509481983 Z_303_0_4 + 0.044703293319495 Z_303_2_0
   + 0.0717579009794769 Z_303_2_1 + 0.00520327513814266 Z_303_2_2
   + 0.0149199309603007 Z_303_2_3 + 0.7634155996025845 Z_303_2_4
   + 0.00627270728232745 Z_303_1_0 + 0.0282107163721071 Z_303_1_1
   + 0.00739374121750757 Z_303_1_2 + 0.0100516195587555 Z_303_1_3
   + 0.8480712155693024 Z_303_1_4 + 0.0124385924502225 Z_303_3_0
   + 0.2518203617237489 Z_303_3_1 + 0.00419283708044427 Z_303_3_2
   + 0.0193889602796973 Z_303_3_3 + 0.612159248465887 Z_303_3_4
   + 4.0803342952863881e-04 Z_559_0_0 + 0.00125870946092928 Z_559_0_1
   + 0.8726734370526606 Z_559_0_2 + 0.00153548287825126 Z_559_0_3
   + 0.0241243371786303 Z_559_0_4 + 0.000570441 Z_646_0_0
   + 9.5356437411353394e-04 Z_646_0_1 + 0.6648104734097793 Z_646_0_2
   + 0.00178789347758407 Z_646_0_3 + 0.231877627641379 Z_646_0_4
   + 0.012523861703925 Z_743_0_0 + 0.7658271395134268 Z_743_0_1
   + 0.0037626495799798 Z_743_0_2 + 0.00309590835597589 Z_743_0_3
   + 0.1147904408466925 Z_743_0_4 + 0.000375342 Z_446_0_0
   + 0.00167681847714835 Z_446_0_1 + 0.7233680808672992 Z_446_0_2
   + 9.426361230839629e-04 Z_446_0_3 + 0.1736371224764236 Z_446_0_4
   + 8.4600476337986813e-04 Z_433_0_0 + 0.000722574 Z_433_0_1
   + 0.7917651122487842 Z_433_0_2 + 0.00158288043354682 Z_433_0_3
   + 0.1050834285190844 Z_433_0_4 + 0.5826598852182647 Z_433_1_0
   + 0.0690057964766155 Z_433_1_1 + 0.0138720739186238 Z_433_1_2
   + 0.029372779453498 Z_433_1_3 + 0.2050894649329979 Z_433_1_4
   + 0.00707699986173002 Z_118_4_0 + 0.0105284011258269 Z_118_4_1
   + 0.0184219719267789 Z_118_4_2 + 0.1657424911137006 Z_118_4_3
   + 0.6982301359719635 Z_118_4_4 + 0.00670536826644845 Z_118_3_0
   + 0.00203142280880659 Z_118_3_1 + 0.1579355061929662 Z_118_3_2
   + 0.0844521147286147 Z_118_3_3 + 0.6488755880031639 Z_118_3_4
   + 7.64865e-05 Z_118_0_0 + 0.00141966631756558 Z_118_0_1
   + 0.4674358520907718 Z_118_0_2 + 8.18217e-05 Z_118_0_3
   + 0.4309861733844054 Z_118_0_4 + 0.00670536826644845 Z_118_2_0
   + 0.00203142280880659 Z_118_2_1 + 0.1579355061929662 Z_118_2_2
   + 0.0844521147286147 Z_118_2_3 + 0.6488755880031639 Z_118_2_4
   + 0.0541266426206214 Z_118_1_0 + 0.0521431759628587 Z_118_1_1
   + 0.1117709356820651 Z_118_1_2 + 0.0157090494037738 Z_118_1_3
   + 0.6662501963306812 Z_118_1_4 + 6.2372977196503232e-04 Z_431_0_0
   + 0.00541384126438298 Z_431_0_1 + 0.829731097626226 Z_431_0_2
   + 0.00768747366971846 Z_431_0_3 + 0.0565438576677076 Z_431_0_4
   + 0.00489953274571095 Z_81_0_0 + 0.348873021592566 Z_81_0_1
   + 0.2741194447483034 Z_81_0_2 + 0.0275396385806677 Z_81_0_3
   + 0.2445683623327521 Z_81_0_4 + 0.00505469989488596 Z_137_0_0
   + 0.8414438958727197 Z_137_0_1 + 0.00201798785796397 Z_137_0_2
   + 0.0145005114485585 Z_137_0_3 + 0.0369829049258719 Z_137_0_4
   + 0.00505469989488596 Z_137_4_0 + 0.8414438958727197 Z_137_4_1
   + 0.00201798785796397 Z_137_4_2 + 0.0145005114485585 Z_137_4_3
   + 0.0369829049258719 Z_137_4_4 + 0.00346572807460047 Z_137_3_0
   + 0.1567653610606996 Z_137_3_1 + 4.7585574189983976e-04 Z_137_3_2
   + 0.1593732301589717 Z_137_3_3 + 0.5799198249638283 Z_137_3_4
   + 0.00637828479990997 Z_137_2_0 + 0.0174761635174756 Z_137_2_1
   + 0.00979996391080899 Z_137_2_2 + 0.000498963 Z_137_2_3
   + 0.8658466248356428 Z_137_2_4 + 1.2209426017285128e-04 Z_137_1_0
   + 0.00130731326652044 Z_137_1_1 + 0.0117621947218348 Z_137_1_2
   + 6.76874e-05 Z_137_1_3 + 0.8867407103792805 Z_137_1_4
   + 0.0118838487786655 Z_664_2_0 + 0.0103815176872806 Z_664_2_1
   + 0.4746302154296506 Z_664_2_2 + 0.00444914914943362 Z_664_2_3
   + 0.3986552689549696 Z_664_2_4 + 0.00115832019285154 Z_664_1_0
   + 5.9134377398532779e-04 Z_664_1_1 + 0.00873226778541909 Z_664_1_2
   + 0.00634586205721313 Z_664_1_3 + 0.8831722061905308 Z_664_1_4
   + 0.1250960174477989 Z_664_4_0 + 0.0454279389568869 Z_664_4_1
   + 0.0261328324296092 Z_664_4_2 + 0.0420938059772557 Z_664_4_3
   + 0.6612494051884493 Z_664_4_4 + 0.00114544437351482 Z_664_3_0
   + 0.0103970330611901 Z_664_3_1 + 0.1307367042339852 Z_664_3_2
   + 0.0122165665053807 Z_664_3_3 + 0.7455042518259292 Z_664_3_4
   + 0.00333334979067994 Z_374_7_0 + 0.00132672392985266 Z_374_7_1
   + 0.00702280587006635 Z_374_7_2 + 0.5657751707408922 Z_374_7_3
   + 0.322541949668509 Z_374_7_4 + 0.00195916726165432 Z_374_5_0
   + 0.00103199545426302 Z_374_5_1 + 0.0556751887969097 Z_374_5_2
   + 0.00522799109030095 Z_374_5_3 + 0.836105657396872 Z_374_5_4
   + 0.0150996173030797 Z_374_4_0 + 0.012840440424599 Z_374_4_1
   + 0.0176452995618356 Z_374_4_2 + 0.00529910323263057 Z_374_4_3
   + 0.8491155394778552 Z_374_4_4 + 0.00568936952759214 Z_374_1_0
   + 0.0117930725735967 Z_374_1_1 + 0.0382698041093851 Z_374_1_2
   + 0.0233451716309497 Z_374_1_3 + 0.8209025821584763 Z_374_1_4
   + 0.00333334979067994 Z_374_3_0 + 0.00132672392985266 Z_374_3_1
   + 0.00702280587006635 Z_374_3_2 + 0.5657751707408922 Z_374_3_3
   + 0.322541949668509 Z_374_3_4 + 0.000698342 Z_374_0_0
   + 3.6010720467989453e-04 Z_374_0_1 + 0.00206260859552398 Z_374_0_2
   + 0.00266190404412722 Z_374_0_3 + 0.8942170380924068 Z_374_0_4
   + 0.0169719550137787 Z_374_6_0 + 0.0187126782227382 Z_374_6_1
   + 0.0135893215912043 Z_374_6_2 + 0.0402140739713309 Z_374_6_3
   + 0.810511971200948 Z_374_6_4 + 0.00333334979067994 Z_374_2_0
   + 0.00132672392985266 Z_374_2_1 + 0.00702280587006635 Z_374_2_2
   + 0.5657751707408922 Z_374_2_3 + 0.322541949668509 Z_374_2_4
   + 5.2115876992461308e-04 Z_103_0_0 + 5.0649214299562553e-04 Z_103_0_1
   + 0.4983832371729016 Z_103_0_2 + 6.6518836555203346e-04 Z_103_0_3
   + 0.3999239235486263 Z_103_0_4 + 0.0265454048589057 Z_131_1_0
   + 0.0179606967163186 Z_131_1_1 + 0.0266912121026058 Z_131_1_2
   + 0.00146938978968782 Z_131_1_3 + 0.8273332965324821 Z_131_1_4
   + 0.000239282 Z_131_0_0 + 1.4544859724015428e-04 Z_131_0_1
   + 0.0872248571636091 Z_131_0_2 + 4.0131923941168858e-04 Z_131_0_3
   + 0.8119890929450829 Z_131_0_4 + 0.00517157857423686 Z_131_2_0
   + 0.0863784877854904 Z_131_2_1 + 0.4651691217760719 Z_131_2_2
   + 0.00312781607390931 Z_131_2_3 + 0.3401529957902915 Z_131_2_4
   + 0.0123343511467618 Z_369_0_0 + 0.774122903697083 Z_369_0_1
   + 0.00372475802283131 Z_369_0_2 + 0.00301077778071153 Z_369_0_3
   + 0.1068072093526122 Z_369_0_4 + 0.00268369678517867 Z_154_0_0
   + 0.8395520345662416 Z_154_0_1 + 0.0173432601852824 Z_154_0_2
   + 0.00370665064412965 Z_154_0_3 + 0.0367143578191677 Z_154_0_4
   + 0.00882420361007793 Z_276_1_0 + 0.0127457156831825 Z_276_1_1
   + 0.06166716145934 Z_276_1_2 + 6.336853615741152e-04 Z_276_1_3
   + 0.8161292338858255 Z_276_1_4 + 0.00635255434524149 Z_276_3_0
   + 0.0566490295139149 Z_276_3_1 + 0.00538543835027662 Z_276_3_2
   + 0.00254851251482683 Z_276_3_3 + 0.8290644652757403 Z_276_3_4
   + 0.0112858738367817 Z_276_4_0 + 0.0497378403325469 Z_276_4_1
   + 0.0382263694496522 Z_276_4_2 + 0.0105768740194186 Z_276_4_3
   + 0.7901730423616006 Z_276_4_4 + 1.0219627207147626e-04 Z_276_0_0
   + 3.8591753757624491e-04 Z_276_0_1 + 0.0278982621712564 Z_276_0_2
   + 1.5276746300034111e-04 Z_276_0_3 + 0.8714608565560955 Z_276_0_4
   + 0.00509614096468178 Z_276_2_0 + 0.7807172858190656 Z_276_2_1
   + 0.00148405158393011 Z_276_2_2 + 0.0107183090023401 Z_276_2_3
   + 0.1019842126299823 Z_276_2_4 + 0.00438219086139223 Z_276_5_0
   + 0.1079592320431229 Z_276_5_1 + 0.00443866853264271 Z_276_5_2
   + 0.00815137023447462 Z_276_5_3 + 0.7750685383283675 Z_276_5_4
   + 0.0305400933084979 Z_660_0_0 + 0.0263670074635292 Z_660_0_1
   + 0.0101323692046043 Z_660_0_2 + 0.6405908218733084 Z_660_0_3
   + 0.1923697081500603 Z_660_0_4 + 4.8666949364538261e-04 Z_660_1_0
   + 0.00105497563023525 Z_660_1_1 + 0.8281452533837591 Z_660_1_2
   + 4.4533076798690049e-04 Z_660_1_3 + 0.0698677707243734 Z_660_1_4
   + 0.0112564857063403 Z_437_0_0 + 0.0601366559736249 Z_437_0_1
   + 0.00539509669476675 Z_437_0_2 + 0.1867346473972881 Z_437_0_3
   + 0.6364771142279801 Z_437_0_4 + 0.0294337193287943 Z_515_0_0
   + 0.4520727703943391 Z_515_0_1 + 0.0158386974220509 Z_515_0_2
   + 0.0266715896936592 Z_515_0_3 + 0.3759832231611566 Z_515_0_4
   + 0.0586590173469776 Z_405_10_0 + 0.0507860868454832 Z_405_10_1
   + 0.0118785793349547 Z_405_10_2 + 0.0101375783157269 Z_405_10_3
   + 0.7685387381568576 Z_405_10_4 + 0.0586081734910726 Z_405_11_0
   + 0.0397554852043845 Z_405_11_1 + 0.012517792446113 Z_405_11_2
   + 0.0202271623572111 Z_405_11_3 + 0.7688913865012189 Z_405_11_4
   + 0.00466679216066249 Z_405_6_0 + 0.0537322103417675 Z_405_6_1
   + 0.0287545529682614 Z_405_6_2 + 0.0436736795329918 Z_405_6_3
   + 0.7691727649963167 Z_405_6_4 + 0.040108484580433 Z_405_5_0
   + 0.055886731723094 Z_405_5_1 + 0.0053386123266168 Z_405_5_2
   + 0.05543669758956 Z_405_5_3 + 0.7432294737802962 Z_405_5_4
   + 0.0118838487786655 Z_405_2_0 + 0.0103815176872806 Z_405_2_1
   + 0.4746302154296506 Z_405_2_2 + 0.00444914914943362 Z_405_2_3
   + 0.3986552689549696 Z_405_2_4 + 0.00211549435140747 Z_405_3_0
   + 0.0164814441011633 Z_405_3_1 + 0.1614745987617976 Z_405_3_2
   + 0.0365664644566636 Z_405_3_3 + 0.683361998328968 Z_405_3_4
   + 0.00211549435140747 Z_405_4_0 + 0.0164814441011633 Z_405_4_1
   + 0.1614745987617976 Z_405_4_2 + 0.0365664644566636 Z_405_4_3
   + 0.683361998328968 Z_405_4_4 + 0.00110386639302646 Z_405_1_0
   + 0.00106758891531649 Z_405_1_1 + 0.0132019585387048 Z_405_1_2
   + 0.00319682134610239 Z_405_1_3 + 0.8814297648068498 Z_405_1_4
   + 0.00761891442021675 Z_405_12_0 + 0.1587969403499221 Z_405_12_1
   + 0.0186387497998504 Z_405_12_2 + 0.1043729214108275 Z_405_12_3
   + 0.6105724740191834 Z_405_12_4 + 0.00277475042810596 Z_405_7_0
   + 0.0205104560204106 Z_405_7_1 + 0.0107413515305001 Z_405_7_2
   + 0.1795304920550645 Z_405_7_3 + 0.6864429499659188 Z_405_7_4
   + 0.00277475042810596 Z_405_9_0 + 0.0205104560204106 Z_405_9_1
   + 0.0107413515305001 Z_405_9_2 + 0.1795304920550645 Z_405_9_3
   + 0.6864429499659188 Z_405_9_4 + 0.0367574935521429 Z_405_8_0
   + 0.2356625666717971 Z_405_8_1 + 0.00236887541715112 Z_405_8_2
   + 0.047706015930144 Z_405_8_3 + 0.5775050484287649 Z_405_8_4
   + 0.0101702796013535 Z_295_0_0 + 0.826249288984944 Z_295_0_1
   + 0.00863443801933173 Z_295_0_2 + 0.00652385 Z_295_0_3
   + 0.0484221434485297 Z_295_0_4 + 0.0236052775981839 Z_402_0_0
   + 0.0492421365527775 Z_402_0_1 + 0.0107661580730564 Z_402_0_2
   + 0.6693166142385518 Z_402_0_3 + 0.1470698135374304 Z_402_0_4
   + 9.8548316167370296e-04 Z_402_1_0 + 0.00117982781333005 Z_402_1_1
   + 0.8157283307367392 Z_402_1_2 + 0.00418931832885433 Z_402_1_3
   + 0.0779170399594028 Z_402_1_4 + 0.00142116806421732 Z_683_3_0
   + 0.00326105767441571 Z_683_3_1 + 0.2025736254440368 Z_683_3_2
   + 0.00678048922625535 Z_683_3_3 + 0.6859636595910749 Z_683_3_4
   + 0.0007375 Z_683_4_0 + 0.00208571062400738 Z_683_4_1
   + 0.2173038764058477 Z_683_4_2 + 0.00112780551659238 Z_683_4_3
   + 0.6787451074180824 Z_683_4_4 + 0.0007375 Z_683_5_0
   + 0.00208571062400738 Z_683_5_1 + 0.2173038764058477 Z_683_5_2
   + 0.00112780551659238 Z_683_5_3 + 0.6787451074180824 Z_683_5_4
   + 0.0177930192509231 Z_683_2_0 + 0.0502062796431055 Z_683_2_1
   + 0.0961546253284493 Z_683_2_2 + 0.00501685598736941 Z_683_2_3
   + 0.7308292197901526 Z_683_2_4 + 0.0409693024710515 Z_683_8_0
   + 0.3402317200105847 Z_683_8_1 + 0.0201010709538581 Z_683_8_2
   + 0.0130037478671503 Z_683_8_3 + 0.4856941586973555 Z_683_8_4
   + 0.00115312079866556 Z_683_1_0 + 0.00888031752545771 Z_683_1_1
   + 0.0596297628221612 Z_683_1_2 + 0.00275343822388978 Z_683_1_3
   + 0.8275833606298258 Z_683_1_4 + 0.1117971618275244 Z_683_7_0
   + 0.5078038386531656 Z_683_7_1 + 0.00897911026475093 Z_683_7_2
   + 0.0856586613114215 Z_683_7_3 + 0.1857612279431377 Z_683_7_4
   + 0.037811578908446 Z_683_6_0 + 0.089843780177798 Z_683_6_1
   + 0.0164828668562797 Z_683_6_2 + 0.00173987804956627 Z_683_6_3
   + 0.75412189600791 Z_683_6_4 + 2.7999141179423207e-04 Z_435_0_0
   + 0.00219776757060123 Z_435_0_1 + 0.0232461237442282 Z_435_0_2
   + 0.4927357911517371 Z_435_0_3 + 0.3815403261216391 Z_435_0_4
   + 0.035716656733333 Z_93_0_0 + 0.1466558331804783 Z_93_0_1
   + 0.0206991749375729 Z_93_0_2 + 0.1149192397493643 Z_93_0_3
   + 0.5820090953992515 Z_93_0_4 + 0.0650458144672423 Z_502_3_0
   + 0.033105331924287 Z_502_3_1 + 0.0139808759985158 Z_502_3_2
   + 0.190483267387434 Z_502_3_3 + 0.5973847102225209 Z_502_3_4
   + 2.4470988212783553e-04 Z_502_4_0 + 0.0045021370034589 Z_502_4_1
   + 0.486373243585504 Z_502_4_2 + 3.5942215874924501e-04 Z_502_4_3
   + 0.4085204873701599 Z_502_4_4 + 0.0118838487786655 Z_502_2_0
   + 0.0103815176872806 Z_502_2_1 + 0.4746302154296506 Z_502_2_2
   + 0.00444914914943362 Z_502_2_3 + 0.3986552689549696 Z_502_2_4
   + 5.4974746146631889e-04 Z_502_1_0 + 0.00168117481738227 Z_502_1_1
   + 0.00968365 Z_502_1_2 + 0.00266732925522493 Z_502_1_3
   + 0.8854180984798642 Z_502_1_4 + 0.0650458144672423 Z_502_5_0
   + 0.033105331924287 Z_502_5_1 + 0.0139808759985158 Z_502_5_2
   + 0.190483267387434 Z_502_5_3 + 0.5973847102225209 Z_502_5_4
Subject To
 constraint1_6030: Z_603_0_0 + Z_603_0_1 + Z_603_0_2 + Z_603_0_3
   + Z_603_0_4 <= 1
 constraint1_6032: Z_603_2_0 + Z_603_2_1 + Z_603_2_2 + Z_603_2_3
   + Z_603_2_4 <= 1
 constraint1_6033: Z_603_3_0 + Z_603_3_1 + Z_603_3_2 + Z_603_3_3
   + Z_603_3_4 <= 1
 constraint1_2210: Z_221_0_0 + Z_221_0_1 + Z_221_0_2 + Z_221_0_3
   + Z_221_0_4 <= 1
 constraint1_5950: Z_595_0_0 + Z_595_0_1 + Z_595_0_2 + Z_595_0_3
   + Z_595_0_4 <= 1
 constraint1_3782: Z_378_2_0 + Z_378_2_1 + Z_378_2_2 + Z_378_2_3
   + Z_378_2_4 <= 1
 constraint1_3780: Z_378_0_0 + Z_378_0_1 + Z_378_0_2 + Z_378_0_3
   + Z_378_0_4 <= 1
 constraint1_3781: Z_378_1_0 + Z_378_1_1 + Z_378_1_2 + Z_378_1_3
   + Z_378_1_4 <= 1
 constraint1_3783: Z_378_3_0 + Z_378_3_1 + Z_378_3_2 + Z_378_3_3
   + Z_378_3_4 <= 1
 constraint1_2650: Z_265_0_0 + Z_265_0_1 + Z_265_0_2 + Z_265_0_3
   + Z_265_0_4 <= 1
 constraint1_430: Z_43_0_0 + Z_43_0_1 + Z_43_0_2 + Z_43_0_3 + Z_43_0_4
   <= 1
 constraint1_170: Z_17_0_0 + Z_17_0_1 + Z_17_0_2 + Z_17_0_3 + Z_17_0_4
   <= 1
 constraint1_3040: Z_304_0_0 + Z_304_0_1 + Z_304_0_2 + Z_304_0_3
   + Z_304_0_4 <= 1
 constraint1_2060: Z_206_0_0 + Z_206_0_1 + Z_206_0_2 + Z_206_0_3
   + Z_206_0_4 <= 1
 constraint1_2450: Z_245_0_0 + Z_245_0_1 + Z_245_0_2 + Z_245_0_3
   + Z_245_0_4 <= 1
 constraint1_2453: Z_245_3_0 + Z_245_3_1 + Z_245_3_2 + Z_245_3_3
   + Z_245_3_4 <= 1
 constraint1_2452: Z_245_2_0 + Z_245_2_1 + Z_245_2_2 + Z_245_2_3
   + Z_245_2_4 <= 1
 constraint1_5430: Z_543_0_0 + Z_543_0_1 + Z_543_0_2 + Z_543_0_3
   + Z_543_0_4 <= 1
 constraint1_1510: Z_151_0_0 + Z_151_0_1 + Z_151_0_2 + Z_151_0_3
   + Z_151_0_4 <= 1
 constraint1_2410: Z_241_0_0 + Z_241_0_1 + Z_241_0_2 + Z_241_0_3
   + Z_241_0_4 <= 1
 constraint1_3030: Z_303_0_0 + Z_303_0_1 + Z_303_0_2 + Z_303_0_3
   + Z_303_0_4 <= 1
 constraint1_3032: Z_303_2_0 + Z_303_2_1 + Z_303_2_2 + Z_303_2_3
   + Z_303_2_4 <= 1
 constraint1_3031: Z_303_1_0 + Z_303_1_1 + Z_303_1_2 + Z_303_1_3
   + Z_303_1_4 <= 1
 constraint1_3033: Z_303_3_0 + Z_303_3_1 + Z_303_3_2 + Z_303_3_3
   + Z_303_3_4 <= 1
 constraint1_5590: Z_559_0_0 + Z_559_0_1 + Z_559_0_2 + Z_559_0_3
   + Z_559_0_4 <= 1
 constraint1_6460: Z_646_0_0 + Z_646_0_1 + Z_646_0_2 + Z_646_0_3
   + Z_646_0_4 <= 1
 constraint1_7430: Z_743_0_0 + Z_743_0_1 + Z_743_0_2 + Z_743_0_3
   + Z_743_0_4 <= 1
 constraint1_4460: Z_446_0_0 + Z_446_0_1 + Z_446_0_2 + Z_446_0_3
   + Z_446_0_4 <= 1
 constraint1_4330: Z_433_0_0 + Z_433_0_1 + Z_433_0_2 + Z_433_0_3
   + Z_433_0_4 <= 1
 constraint1_4331: Z_433_1_0 + Z_433_1_1 + Z_433_1_2 + Z_433_1_3
   + Z_433_1_4 <= 1
 constraint1_1184: Z_118_4_0 + Z_118_4_1 + Z_118_4_2 + Z_118_4_3
   + Z_118_4_4 <= 1
 constraint1_1183: Z_118_3_0 + Z_118_3_1 + Z_118_3_2 + Z_118_3_3
   + Z_118_3_4 <= 1
 constraint1_1180: Z_118_0_0 + Z_118_0_1 + Z_118_0_2 + Z_118_0_3
   + Z_118_0_4 <= 1
 constraint1_1182: Z_118_2_0 + Z_118_2_1 + Z_118_2_2 + Z_118_2_3
   + Z_118_2_4 <= 1
 constraint1_1181: Z_118_1_0 + Z_118_1_1 + Z_118_1_2 + Z_118_1_3
   + Z_118_1_4 <= 1
 constraint1_4310: Z_431_0_0 + Z_431_0_1 + Z_431_0_2 + Z_431_0_3
   + Z_431_0_4 <= 1
 constraint1_810: Z_81_0_0 + Z_81_0_1 + Z_81_0_2 + Z_81_0_3 + Z_81_0_4
   <= 1
 constraint1_1370: Z_137_0_0 + Z_137_0_1 + Z_137_0_2 + Z_137_0_3
   + Z_137_0_4 <= 1
 constraint1_1374: Z_137_4_0 + Z_137_4_1 + Z_137_4_2 + Z_137_4_3
   + Z_137_4_4 <= 1
 constraint1_1373: Z_137_3_0 + Z_137_3_1 + Z_137_3_2 + Z_137_3_3
   + Z_137_3_4 <= 1
 constraint1_1372: Z_137_2_0 + Z_137_2_1 + Z_137_2_2 + Z_137_2_3
   + Z_137_2_4 <= 1
 constraint1_1371: Z_137_1_0 + Z_137_1_1 + Z_137_1_2 + Z_137_1_3
   + Z_137_1_4 <= 1
 constraint1_6642: Z_664_2_0 + Z_664_2_1 + Z_664_2_2 + Z_664_2_3
   + Z_664_2_4 <= 1
 constraint1_6641: Z_664_1_0 + Z_664_1_1 + Z_664_1_2 + Z_664_1_3
   + Z_664_1_4 <= 1
 constraint1_6644: Z_664_4_0 + Z_664_4_1 + Z_664_4_2 + Z_664_4_3
   + Z_664_4_4 <= 1
 constraint1_6643: Z_664_3_0 + Z_664_3_1 + Z_664_3_2 + Z_664_3_3
   + Z_664_3_4 <= 1
 constraint1_3747: Z_374_7_0 + Z_374_7_1 + Z_374_7_2 + Z_374_7_3
   + Z_374_7_4 <= 1
 constraint1_3745: Z_374_5_0 + Z_374_5_1 + Z_374_5_2 + Z_374_5_3
   + Z_374_5_4 <= 1
 constraint1_3744: Z_374_4_0 + Z_374_4_1 + Z_374_4_2 + Z_374_4_3
   + Z_374_4_4 <= 1
 constraint1_3741: Z_374_1_0 + Z_374_1_1 + Z_374_1_2 + Z_374_1_3
   + Z_374_1_4 <= 1
 constraint1_3743: Z_374_3_0 + Z_374_3_1 + Z_374_3_2 + Z_374_3_3
   + Z_374_3_4 <= 1
 constraint1_3740: Z_374_0_0 + Z_374_0_1 + Z_374_0_2 + Z_374_0_3
   + Z_374_0_4 <= 1
 constraint1_3746: Z_374_6_0 + Z_374_6_1 + Z_374_6_2 + Z_374_6_3
   + Z_374_6_4 <= 1
 constraint1_3742: Z_374_2_0 + Z_374_2_1 + Z_374_2_2 + Z_374_2_3
   + Z_374_2_4 <= 1
 constraint1_1030: Z_103_0_0 + Z_103_0_1 + Z_103_0_2 + Z_103_0_3
   + Z_103_0_4 <= 1
 constraint1_1311: Z_131_1_0 + Z_131_1_1 + Z_131_1_2 + Z_131_1_3
   + Z_131_1_4 <= 1
 constraint1_1310: Z_131_0_0 + Z_131_0_1 + Z_131_0_2 + Z_131_0_3
   + Z_131_0_4 <= 1
 constraint1_1312: Z_131_2_0 + Z_131_2_1 + Z_131_2_2 + Z_131_2_3
   + Z_131_2_4 <= 1
 constraint1_3690: Z_369_0_0 + Z_369_0_1 + Z_369_0_2 + Z_369_0_3
   + Z_369_0_4 <= 1
 constraint1_1540: Z_154_0_0 + Z_154_0_1 + Z_154_0_2 + Z_154_0_3
   + Z_154_0_4 <= 1
 constraint1_2761: Z_276_1_0 + Z_276_1_1 + Z_276_1_2 + Z_276_1_3
   + Z_276_1_4 <= 1
 constraint1_2763: Z_276_3_0 + Z_276_3_1 + Z_276_3_2 + Z_276_3_3
   + Z_276_3_4 <= 1
 constraint1_2764: Z_276_4_0 + Z_276_4_1 + Z_276_4_2 + Z_276_4_3
   + Z_276_4_4 <= 1
 constraint1_2760: Z_276_0_0 + Z_276_0_1 + Z_276_0_2 + Z_276_0_3
   + Z_276_0_4 <= 1
 constraint1_2762: Z_276_2_0 + Z_276_2_1 + Z_276_2_2 + Z_276_2_3
   + Z_276_2_4 <= 1
 constraint1_2765: Z_276_5_0 + Z_276_5_1 + Z_276_5_2 + Z_276_5_3
   + Z_276_5_4 <= 1
 constraint1_6600: Z_660_0_0 + Z_660_0_1 + Z_660_0_2 + Z_660_0_3
   + Z_660_0_4 <= 1
 constraint1_6601: Z_660_1_0 + Z_660_1_1 + Z_660_1_2 + Z_660_1_3
   + Z_660_1_4 <= 1
 constraint1_4370: Z_437_0_0 + Z_437_0_1 + Z_437_0_2 + Z_437_0_3
   + Z_437_0_4 <= 1
 constraint1_5150: Z_515_0_0 + Z_515_0_1 + Z_515_0_2 + Z_515_0_3
   + Z_515_0_4 <= 1
 constraint1_40510: Z_405_10_0 + Z_405_10_1 + Z_405_10_2 + Z_405_10_3
   + Z_405_10_4 <= 1
 constraint1_40511: Z_405_11_0 + Z_405_11_1 + Z_405_11_2 + Z_405_11_3
   + Z_405_11_4 <= 1
 constraint1_4056: Z_405_6_0 + Z_405_6_1 + Z_405_6_2 + Z_405_6_3
   + Z_405_6_4 <= 1
 constraint1_4055: Z_405_5_0 + Z_405_5_1 + Z_405_5_2 + Z_405_5_3
   + Z_405_5_4 <= 1
 constraint1_4052: Z_405_2_0 + Z_405_2_1 + Z_405_2_2 + Z_405_2_3
   + Z_405_2_4 <= 1
 constraint1_4053: Z_405_3_0 + Z_405_3_1 + Z_405_3_2 + Z_405_3_3
   + Z_405_3_4 <= 1
 constraint1_4054: Z_405_4_0 + Z_405_4_1 + Z_405_4_2 + Z_405_4_3
   + Z_405_4_4 <= 1
 constraint1_4051: Z_405_1_0 + Z_405_1_1 + Z_405_1_2 + Z_405_1_3
   + Z_405_1_4 <= 1
 constraint1_40512: Z_405_12_0 + Z_405_12_1 + Z_405_12_2 + Z_405_12_3
   + Z_405_12_4 <= 1
 constraint1_4057: Z_405_7_0 + Z_405_7_1 + Z_405_7_2 + Z_405_7_3
   + Z_405_7_4 <= 1
 constraint1_4059: Z_405_9_0 + Z_405_9_1 + Z_405_9_2 + Z_405_9_3
   + Z_405_9_4 <= 1
 constraint1_4058: Z_405_8_0 + Z_405_8_1 + Z_405_8_2 + Z_405_8_3
   + Z_405_8_4 <= 1
 constraint1_2950: Z_295_0_0 + Z_295_0_1 + Z_295_0_2 + Z_295_0_3
   + Z_295_0_4 <= 1
 constraint1_4020: Z_402_0_0 + Z_402_0_1 + Z_402_0_2 + Z_402_0_3
   + Z_402_0_4 <= 1
 constraint1_4021: Z_402_1_0 + Z_402_1_1 + Z_402_1_2 + Z_402_1_3
   + Z_402_1_4 <= 1
 constraint1_6833: Z_683_3_0 + Z_683_3_1 + Z_683_3_2 + Z_683_3_3
   + Z_683_3_4 <= 1
 constraint1_6834: Z_683_4_0 + Z_683_4_1 + Z_683_4_2 + Z_683_4_3
   + Z_683_4_4 <= 1
 constraint1_6835: Z_683_5_0 + Z_683_5_1 + Z_683_5_2 + Z_683_5_3
   + Z_683_5_4 <= 1
 constraint1_6832: Z_683_2_0 + Z_683_2_1 + Z_683_2_2 + Z_683_2_3
   + Z_683_2_4 <= 1
 constraint1_6838: Z_683_8_0 + Z_683_8_1 + Z_683_8_2 + Z_683_8_3
   + Z_683_8_4 <= 1
 constraint1_6831: Z_683_1_0 + Z_683_1_1 + Z_683_1_2 + Z_683_1_3
   + Z_683_1_4 <= 1
 constraint1_6837: Z_683_7_0 + Z_683_7_1 + Z_683_7_2 + Z_683_7_3
   + Z_683_7_4 <= 1
 constraint1_6836: Z_683_6_0 + Z_683_6_1 + Z_683_6_2 + Z_683_6_3
   + Z_683_6_4 <= 1
 constraint1_4350: Z_435_0_0 + Z_435_0_1 + Z_435_0_2 + Z_435_0_3
   + Z_435_0_4 <= 1
 constraint1_930: Z_93_0_0 + Z_93_0_1 + Z_93_0_2 + Z_93_0_3 + Z_93_0_4
   <= 1
 constraint1_5023: Z_502_3_0 + Z_502_3_1 + Z_502_3_2 + Z_502_3_3
   + Z_502_3_4 <= 1
 constraint1_5024: Z_502_4_0 + Z_502_4_1 + Z_502_4_2 + Z_502_4_3
   + Z_502_4_4 <= 1
 constraint1_5022: Z_502_2_0 + Z_502_2_1 + Z_502_2_2 + Z_502_2_3
   + Z_502_2_4 <= 1
 constraint1_5021: Z_502_1_0 + Z_502_1_1 + Z_502_1_2 + Z_502_1_3
   + Z_502_1_4 <= 1
 constraint1_5025: Z_502_5_0 + Z_502_5_1 + Z_502_5_2 + Z_502_5_3
   + Z_502_5_4 <= 1
 constraint2_6030: Z_603_0_0 + Z_603_2_0 + Z_603_3_0 <= 1
 constraint2_6031: Z_603_0_1 + Z_603_2_1 + Z_603_3_1 <= 1
 constraint2_6032: Z_603_0_2 + Z_603_2_2 + Z_603_3_2 <= 1
 constraint2_6033: Z_603_0_3 + Z_603_2_3 + Z_603_3_3 <= 1
 constraint2_2210: Z_221_0_0 <= 1
 constraint2_2211: Z_221_0_1 <= 1
 constraint2_2212: Z_221_0_2 <= 1
 constraint2_2213: Z_221_0_3 <= 1
 constraint2_5950: Z_595_0_0 <= 1
 constraint2_5951: Z_595_0_1 <= 1
 constraint2_5952: Z_595_0_2 <= 1
 constraint2_5953: Z_595_0_3 <= 1
 constraint2_100: <= 1
 constraint2_101: <= 1
 constraint2_102: <= 1
 constraint2_103: <= 1
 constraint2_3780: Z_378_2_0 + Z_378_0_0 + Z_378_1_0 + Z_378_3_0 <= 1
 constraint2_3781: Z_378_2_1 + Z_378_0_1 + Z_378_1_1 + Z_378_3_1 <= 1
 constraint2_3782: Z_378_2_2 + Z_378_0_2 + Z_378_1_2 + Z_378_3_2 <= 1
 constraint2_3783: Z_378_2_3 + Z_378_0_3 + Z_378_1_3 + Z_378_3_3 <= 1
 constraint2_2650: Z_265_0_0 <= 1
 constraint2_2651: Z_265_0_1 <= 1
 constraint2_2652: Z_265_0_2 <= 1
 constraint2_2653: Z_265_0_3 <= 1
 constraint2_430: Z_43_0_0 <= 1
 constraint2_431: Z_43_0_1 <= 1
 constraint2_432: Z_43_0_2 <= 1
 constraint2_433: Z_43_0_3 <= 1
 constraint2_170: Z_17_0_0 <= 1
 constraint2_171: Z_17_0_1 <= 1
 constraint2_172: Z_17_0_2 <= 1
 constraint2_173: Z_17_0_3 <= 1
 constraint2_3040: Z_304_0_0 <= 1
 constraint2_3041: Z_304_0_1 <= 1
 constraint2_3042: Z_304_0_2 <= 1
 constraint2_3043: Z_304_0_3 <= 1
 constraint2_2060: Z_206_0_0 <= 1
 constraint2_2061: Z_206_0_1 <= 1
 constraint2_2062: Z_206_0_2 <= 1
 constraint2_2063: Z_206_0_3 <= 1
 constraint2_2450: Z_245_0_0 + Z_245_3_0 + Z_245_2_0 <= 1
 constraint2_2451: Z_245_0_1 + Z_245_3_1 + Z_245_2_1 <= 1
 constraint2_2452: Z_245_0_2 + Z_245_3_2 + Z_245_2_2 <= 1
 constraint2_2453: Z_245_0_3 + Z_245_3_3 + Z_245_2_3 <= 1
 constraint2_5430: Z_543_0_0 <= 1
 constraint2_5431: Z_543_0_1 <= 1
 constraint2_5432: Z_543_0_2 <= 1
 constraint2_5433: Z_543_0_3 <= 1
 constraint2_1510: Z_151_0_0 <= 1
 constraint2_1511: Z_151_0_1 <= 1
 constraint2_1512: Z_151_0_2 <= 1
 constraint2_1513: Z_151_0_3 <= 1
 constraint2_120: <= 1
 constraint2_121: <= 1
 constraint2_122: <= 1
 constraint2_123: <= 1
 constraint2_5840: <= 1
 constraint2_5841: <= 1
 constraint2_5842: <= 1
 constraint2_5843: <= 1
 constraint2_4160: <= 1
 constraint2_4161: <= 1
 constraint2_4162: <= 1
 constraint2_4163: <= 1
 constraint2_2410: Z_241_0_0 <= 1
 constraint2_2411: Z_241_0_1 <= 1
 constraint2_2412: Z_241_0_2 <= 1
 constraint2_2413: Z_241_0_3 <= 1
 constraint2_3030: Z_303_0_0 + Z_303_2_0 + Z_303_1_0 + Z_303_3_0 <= 1
 constraint2_3031: Z_303_0_1 + Z_303_2_1 + Z_303_1_1 + Z_303_3_1 <= 1
 constraint2_3032: Z_303_0_2 + Z_303_2_2 + Z_303_1_2 + Z_303_3_2 <= 1
 constraint2_3033: Z_303_0_3 + Z_303_2_3 + Z_303_1_3 + Z_303_3_3 <= 1
 constraint2_5590: Z_559_0_0 <= 1
 constraint2_5591: Z_559_0_1 <= 1
 constraint2_5592: Z_559_0_2 <= 1
 constraint2_5593: Z_559_0_3 <= 1
 constraint2_260: <= 1
 constraint2_261: <= 1
 constraint2_262: <= 1
 constraint2_263: <= 1
 constraint2_6460: Z_646_0_0 <= 1
 constraint2_6461: Z_646_0_1 <= 1
 constraint2_6462: Z_646_0_2 <= 1
 constraint2_6463: Z_646_0_3 <= 1
 constraint2_7430: Z_743_0_0 <= 1
 constraint2_7431: Z_743_0_1 <= 1
 constraint2_7432: Z_743_0_2 <= 1
 constraint2_7433: Z_743_0_3 <= 1
 constraint2_4460: Z_446_0_0 <= 1
 constraint2_4461: Z_446_0_1 <= 1
 constraint2_4462: Z_446_0_2 <= 1
 constraint2_4463: Z_446_0_3 <= 1
 constraint2_4330: Z_433_0_0 + Z_433_1_0 <= 1
 constraint2_4331: Z_433_0_1 + Z_433_1_1 <= 1
 constraint2_4332: Z_433_0_2 + Z_433_1_2 <= 1
 constraint2_4333: Z_433_0_3 + Z_433_1_3 <= 1
 constraint2_1180: Z_118_4_0 + Z_118_3_0 + Z_118_0_0 + Z_118_2_0
   + Z_118_1_0 <= 1
 constraint2_1181: Z_118_4_1 + Z_118_3_1 + Z_118_0_1 + Z_118_2_1
   + Z_118_1_1 <= 1
 constraint2_1182: Z_118_4_2 + Z_118_3_2 + Z_118_0_2 + Z_118_2_2
   + Z_118_1_2 <= 1
 constraint2_1183: Z_118_4_3 + Z_118_3_3 + Z_118_0_3 + Z_118_2_3
   + Z_118_1_3 <= 1
 constraint2_4310: Z_431_0_0 <= 1
 constraint2_4311: Z_431_0_1 <= 1
 constraint2_4312: Z_431_0_2 <= 1
 constraint2_4313: Z_431_0_3 <= 1
 constraint2_810: Z_81_0_0 <= 1
 constraint2_811: Z_81_0_1 <= 1
 constraint2_812: Z_81_0_2 <= 1
 constraint2_813: Z_81_0_3 <= 1
 constraint2_1370: Z_137_0_0 + Z_137_4_0 + Z_137_3_0 + Z_137_2_0
   + Z_137_1_0 <= 1
 constraint2_1371: Z_137_0_1 + Z_137_4_1 + Z_137_3_1 + Z_137_2_1
   + Z_137_1_1 <= 1
 constraint2_1372: Z_137_0_2 + Z_137_4_2 + Z_137_3_2 + Z_137_2_2
   + Z_137_1_2 <= 1
 constraint2_1373: Z_137_0_3 + Z_137_4_3 + Z_137_3_3 + Z_137_2_3
   + Z_137_1_3 <= 1
 constraint2_6640: Z_664_2_0 + Z_664_1_0 + Z_664_4_0 + Z_664_3_0 <= 1
 constraint2_6641: Z_664_2_1 + Z_664_1_1 + Z_664_4_1 + Z_664_3_1 <= 1
 constraint2_6642: Z_664_2_2 + Z_664_1_2 + Z_664_4_2 + Z_664_3_2 <= 1
 constraint2_6643: Z_664_2_3 + Z_664_1_3 + Z_664_4_3 + Z_664_3_3 <= 1
 constraint2_3740: Z_374_7_0 + Z_374_5_0 + Z_374_4_0 + Z_374_1_0
   + Z_374_3_0 + Z_374_0_0 + Z_374_6_0 + Z_374_2_0 <= 1
 constraint2_3741: Z_374_7_1 + Z_374_5_1 + Z_374_4_1 + Z_374_1_1
   + Z_374_3_1 + Z_374_0_1 + Z_374_6_1 + Z_374_2_1 <= 1
 constraint2_3742: Z_374_7_2 + Z_374_5_2 + Z_374_4_2 + Z_374_1_2
   + Z_374_3_2 + Z_374_0_2 + Z_374_6_2 + Z_374_2_2 <= 1
 constraint2_3743: Z_374_7_3 + Z_374_5_3 + Z_374_4_3 + Z_374_1_3
   + Z_374_3_3 + Z_374_0_3 + Z_374_6_3 + Z_374_2_3 <= 1
 constraint2_3860: <= 1
 constraint2_3861: <= 1
 constraint2_3862: <= 1
 constraint2_3863: <= 1
 constraint2_1030: Z_103_0_0 <= 1
 constraint2_1031: Z_103_0_1 <= 1
 constraint2_1032: Z_103_0_2 <= 1
 constraint2_1033: Z_103_0_3 <= 1
 constraint2_1310: Z_131_1_0 + Z_131_0_0 + Z_131_2_0 <= 1
 constraint2_1311: Z_131_1_1 + Z_131_0_1 + Z_131_2_1 <= 1
 constraint2_1312: Z_131_1_2 + Z_131_0_2 + Z_131_2_2 <= 1
 constraint2_1313: Z_131_1_3 + Z_131_0_3 + Z_131_2_3 <= 1
 constraint2_3690: Z_369_0_0 <= 1
 constraint2_3691: Z_369_0_1 <= 1
 constraint2_3692: Z_369_0_2 <= 1
 constraint2_3693: Z_369_0_3 <= 1
 constraint2_1540: Z_154_0_0 <= 1
 constraint2_1541: Z_154_0_1 <= 1
 constraint2_1542: Z_154_0_2 <= 1
 constraint2_1543: Z_154_0_3 <= 1
 constraint2_2760: Z_276_1_0 + Z_276_3_0 + Z_276_4_0 + Z_276_0_0
   + Z_276_2_0 + Z_276_5_0 <= 1
 constraint2_2761: Z_276_1_1 + Z_276_3_1 + Z_276_4_1 + Z_276_0_1
   + Z_276_2_1 + Z_276_5_1 <= 1
 constraint2_2762: Z_276_1_2 + Z_276_3_2 + Z_276_4_2 + Z_276_0_2
   + Z_276_2_2 + Z_276_5_2 <= 1
 constraint2_2763: Z_276_1_3 + Z_276_3_3 + Z_276_4_3 + Z_276_0_3
   + Z_276_2_3 + Z_276_5_3 <= 1
 constraint2_6600: Z_660_0_0 + Z_660_1_0 <= 1
 constraint2_6601: Z_660_0_1 + Z_660_1_1 <= 1
 constraint2_6602: Z_660_0_2 + Z_660_1_2 <= 1
 constraint2_6603: Z_660_0_3 + Z_660_1_3 <= 1
 constraint2_1000: <= 1
 constraint2_1001: <= 1
 constraint2_1002: <= 1
 constraint2_1003: <= 1
 constraint2_4370: Z_437_0_0 <= 1
 constraint2_4371: Z_437_0_1 <= 1
 constraint2_4372: Z_437_0_2 <= 1
 constraint2_4373: Z_437_0_3 <= 1
 constraint2_1350: <= 1
 constraint2_1351: <= 1
 constraint2_1352: <= 1
 constraint2_1353: <= 1
 constraint2_5150: Z_515_0_0 <= 1
 constraint2_5151: Z_515_0_1 <= 1
 constraint2_5152: Z_515_0_2 <= 1
 constraint2_5153: Z_515_0_3 <= 1
 constraint2_4050: Z_405_10_0 + Z_405_11_0 + Z_405_6_0 + Z_405_5_0
   + Z_405_2_0 + Z_405_3_0 + Z_405_4_0 + Z_405_1_0 + Z_405_12_0 + Z_405_7_0
   + Z_405_9_0 + Z_405_8_0 <= 1
 constraint2_4051: Z_405_10_1 + Z_405_11_1 + Z_405_6_1 + Z_405_5_1
   + Z_405_2_1 + Z_405_3_1 + Z_405_4_1 + Z_405_1_1 + Z_405_12_1 + Z_405_7_1
   + Z_405_9_1 + Z_405_8_1 <= 1
 constraint2_4052: Z_405_10_2 + Z_405_11_2 + Z_405_6_2 + Z_405_5_2
   + Z_405_2_2 + Z_405_3_2 + Z_405_4_2 + Z_405_1_2 + Z_405_12_2 + Z_405_7_2
   + Z_405_9_2 + Z_405_8_2 <= 1
 constraint2_4053: Z_405_10_3 + Z_405_11_3 + Z_405_6_3 + Z_405_5_3
   + Z_405_2_3 + Z_405_3_3 + Z_405_4_3 + Z_405_1_3 + Z_405_12_3 + Z_405_7_3
   + Z_405_9_3 + Z_405_8_3 <= 1
 constraint2_5100: <= 1
 constraint2_5101: <= 1
 constraint2_5102: <= 1
 constraint2_5103: <= 1
 constraint2_2950: Z_295_0_0 <= 1
 constraint2_2951: Z_295_0_1 <= 1
 constraint2_2952: Z_295_0_2 <= 1
 constraint2_2953: Z_295_0_3 <= 1
 constraint2_4020: Z_402_0_0 + Z_402_1_0 <= 1
 constraint2_4021: Z_402_0_1 + Z_402_1_1 <= 1
 constraint2_4022: Z_402_0_2 + Z_402_1_2 <= 1
 constraint2_4023: Z_402_0_3 + Z_402_1_3 <= 1
 constraint2_6830: Z_683_3_0 + Z_683_4_0 + Z_683_5_0 + Z_683_2_0
   + Z_683_8_0 + Z_683_1_0 + Z_683_7_0 + Z_683_6_0 <= 1
 constraint2_6831: Z_683_3_1 + Z_683_4_1 + Z_683_5_1 + Z_683_2_1
   + Z_683_8_1 + Z_683_1_1 + Z_683_7_1 + Z_683_6_1 <= 1
 constraint2_6832: Z_683_3_2 + Z_683_4_2 + Z_683_5_2 + Z_683_2_2
   + Z_683_8_2 + Z_683_1_2 + Z_683_7_2 + Z_683_6_2 <= 1
 constraint2_6833: Z_683_3_3 + Z_683_4_3 + Z_683_5_3 + Z_683_2_3
   + Z_683_8_3 + Z_683_1_3 + Z_683_7_3 + Z_683_6_3 <= 1
 constraint2_990: <= 1
 constraint2_991: <= 1
 constraint2_992: <= 1
 constraint2_993: <= 1
 constraint2_4350: Z_435_0_0 <= 1
 constraint2_4351: Z_435_0_1 <= 1
 constraint2_4352: Z_435_0_2 <= 1
 constraint2_4353: Z_435_0_3 <= 1
 constraint2_7030: <= 1
 constraint2_7031: <= 1
 constraint2_7032: <= 1
 constraint2_7033: <= 1
 constraint2_930: Z_93_0_0 <= 1
 constraint2_931: Z_93_0_1 <= 1
 constraint2_932: Z_93_0_2 <= 1
 constraint2_933: Z_93_0_3 <= 1
 constraint2_5020: Z_502_3_0 + Z_502_4_0 + Z_502_2_0 + Z_502_1_0
   + Z_502_5_0 <= 1
 constraint2_5021: Z_502_3_1 + Z_502_4_1 + Z_502_2_1 + Z_502_1_1
   + Z_502_5_1 <= 1
 constraint2_5022: Z_502_3_2 + Z_502_4_2 + Z_502_2_2 + Z_502_1_2
   + Z_502_5_2 <= 1
 constraint2_5023: Z_502_3_3 + Z_502_4_3 + Z_502_2_3 + Z_502_1_3
   + Z_502_5_3 <= 1
Bounds
Binaries
 Z_603_0_0 Z_603_0_1 Z_603_0_2 Z_603_0_3 Z_603_0_4 Z_603_2_0 Z_603_2_1
 Z_603_2_2 Z_603_2_3 Z_603_2_4 Z_603_3_0 Z_603_3_1 Z_603_3_2 Z_603_3_3
 Z_603_3_4 Z_221_0_0 Z_221_0_1 Z_221_0_2 Z_221_0_3 Z_221_0_4 Z_595_0_0
 Z_595_0_1 Z_595_0_2 Z_595_0_3 Z_595_0_4 Z_378_2_0 Z_378_2_1 Z_378_2_2
 Z_378_2_3 Z_378_2_4 Z_378_0_0 Z_378_0_1 Z_378_0_2 Z_378_0_3 Z_378_0_4
 Z_378_1_0 Z_378_1_1 Z_378_1_2 Z_378_1_3 Z_378_1_4 Z_378_3_0 Z_378_3_1
 Z_378_3_2 Z_378_3_3 Z_378_3_4 Z_265_0_0 Z_265_0_1 Z_265_0_2 Z_265_0_3
 Z_265_0_4 Z_43_0_0 Z_43_0_1 Z_43_0_2 Z_43_0_3 Z_43_0_4 Z_17_0_0 Z_17_0_1
 Z_17_0_2 Z_17_0_3 Z_17_0_4 Z_304_0_0 Z_304_0_1 Z_304_0_2 Z_304_0_3
 Z_304_0_4 Z_206_0_0 Z_206_0_1 Z_206_0_2 Z_206_0_3 Z_206_0_4 Z_245_0_0
 Z_245_0_1 Z_245_0_2 Z_245_0_3 Z_245_0_4 Z_245_3_0 Z_245_3_1 Z_245_3_2
 Z_245_3_3 Z_245_3_4 Z_245_2_0 Z_245_2_1 Z_245_2_2 Z_245_2_3 Z_245_2_4
 Z_543_0_0 Z_543_0_1 Z_543_0_2 Z_543_0_3 Z_543_0_4 Z_151_0_0 Z_151_0_1
 Z_151_0_2 Z_151_0_3 Z_151_0_4 Z_241_0_0 Z_241_0_1 Z_241_0_2 Z_241_0_3
 Z_241_0_4 Z_303_0_0 Z_303_0_1 Z_303_0_2 Z_303_0_3 Z_303_0_4 Z_303_2_0
 Z_303_2_1 Z_303_2_2 Z_303_2_3 Z_303_2_4 Z_303_1_0 Z_303_1_1 Z_303_1_2
 Z_303_1_3 Z_303_1_4 Z_303_3_0 Z_303_3_1 Z_303_3_2 Z_303_3_3 Z_303_3_4
 Z_559_0_0 Z_559_0_1 Z_559_0_2 Z_559_0_3 Z_559_0_4 Z_646_0_0 Z_646_0_1
 Z_646_0_2 Z_646_0_3 Z_646_0_4 Z_743_0_0 Z_743_0_1 Z_743_0_2 Z_743_0_3
 Z_743_0_4 Z_446_0_0 Z_446_0_1 Z_446_0_2 Z_446_0_3 Z_446_0_4 Z_433_0_0
 Z_433_0_1 Z_433_0_2 Z_433_0_3 Z_433_0_4 Z_433_1_0 Z_433_1_1 Z_433_1_2
 Z_433_1_3 Z_433_1_4 Z_118_4_0 Z_118_4_1 Z_118_4_2 Z_118_4_3 Z_118_4_4
 Z_118_3_0 Z_118_3_1 Z_118_3_2 Z_118_3_3 Z_118_3_4 Z_118_0_0 Z_118_0_1
 Z_118_0_2 Z_118_0_3 Z_118_0_4 Z_118_2_0 Z_118_2_1 Z_118_2_2 Z_118_2_3
 Z_118_2_4 Z_118_1_0 Z_118_1_1 Z_118_1_2 Z_118_1_3 Z_118_1_4 Z_431_0_0
 Z_431_0_1 Z_431_0_2 Z_431_0_3 Z_431_0_4 Z_81_0_0 Z_81_0_1 Z_81_0_2
 Z_81_0_3 Z_81_0_4 Z_137_0_0 Z_137_0_1 Z_137_0_2 Z_137_0_3 Z_137_0_4
 Z_137_4_0 Z_137_4_1 Z_137_4_2 Z_137_4_3 Z_137_4_4 Z_137_3_0 Z_137_3_1
 Z_137_3_2 Z_137_3_3 Z_137_3_4 Z_137_2_0 Z_137_2_1 Z_137_2_2 Z_137_2_3
 Z_137_2_4 Z_137_1_0 Z_137_1_1 Z_137_1_2 Z_137_1_3 Z_137_1_4 Z_664_2_0
 Z_664_2_1 Z_664_2_2 Z_664_2_3 Z_664_2_4 Z_664_1_0 Z_664_1_1 Z_664_1_2
 Z_664_1_3 Z_664_1_4 Z_664_4_0 Z_664_4_1 Z_664_4_2 Z_664_4_3 Z_664_4_4
 Z_664_3_0 Z_664_3_1 Z_664_3_2 Z_664_3_3 Z_664_3_4 Z_374_7_0 Z_374_7_1
 Z_374_7_2 Z_374_7_3 Z_374_7_4 Z_374_5_0 Z_374_5_1 Z_374_5_2 Z_374_5_3
 Z_374_5_4 Z_374_4_0 Z_374_4_1 Z_374_4_2 Z_374_4_3 Z_374_4_4 Z_374_1_0
 Z_374_1_1 Z_374_1_2 Z_374_1_3 Z_374_1_4 Z_374_3_0 Z_374_3_1 Z_374_3_2
 Z_374_3_3 Z_374_3_4 Z_374_0_0 Z_374_0_1 Z_374_0_2 Z_374_0_3 Z_374_0_4
 Z_374_6_0 Z_374_6_1 Z_374_6_2 Z_374_6_3 Z_374_6_4 Z_374_2_0 Z_374_2_1
 Z_374_2_2 Z_374_2_3 Z_374_2_4 Z_103_0_0 Z_103_0_1 Z_103_0_2 Z_103_0_3
 Z_103_0_4 Z_131_1_0 Z_131_1_1 Z_131_1_2 Z_131_1_3 Z_131_1_4 Z_131_0_0
 Z_131_0_1 Z_131_0_2 Z_131_0_3 Z_131_0_4 Z_131_2_0 Z_131_2_1 Z_131_2_2
 Z_131_2_3 Z_131_2_4 Z_369_0_0 Z_369_0_1 Z_369_0_2 Z_369_0_3 Z_369_0_4
 Z_154_0_0 Z_154_0_1 Z_154_0_2 Z_154_0_3 Z_154_0_4 Z_276_1_0 Z_276_1_1
 Z_276_1_2 Z_276_1_3 Z_276_1_4 Z_276_3_0 Z_276_3_1 Z_276_3_2 Z_276_3_3
 Z_276_3_4 Z_276_4_0 Z_276_4_1 Z_276_4_2 Z_276_4_3 Z_276_4_4 Z_276_0_0
 Z_276_0_1 Z_276_0_2 Z_276_0_3 Z_276_0_4 Z_276_2_0 Z_276_2_1 Z_276_2_2
 Z_276_2_3 Z_276_2_4 Z_276_5_0 Z_276_5_1 Z_276_5_2 Z_276_5_3 Z_276_5_4
 Z_660_0_0 Z_660_0_1 Z_660_0_2 Z_660_0_3 Z_660_0_4 Z_660_1_0 Z_660_1_1
 Z_660_1_2 Z_660_1_3 Z_660_1_4 Z_437_0_0 Z_437_0_1 Z_437_0_2 Z_437_0_3
 Z_437_0_4 Z_515_0_0 Z_515_0_1 Z_515_0_2 Z_515_0_3 Z_515_0_4 Z_405_10_0
 Z_405_10_1 Z_405_10_2 Z_405_10_3 Z_405_10_4 Z_405_11_0 Z_405_11_1
 Z_405_11_2 Z_405_11_3 Z_405_11_4 Z_405_6_0 Z_405_6_1 Z_405_6_2 Z_405_6_3
 Z_405_6_4 Z_405_5_0 Z_405_5_1 Z_405_5_2 Z_405_5_3 Z_405_5_4 Z_405_2_0
 Z_405_2_1 Z_405_2_2 Z_405_2_3 Z_405_2_4 Z_405_3_0 Z_405_3_1 Z_405_3_2
 Z_405_3_3 Z_405_3_4 Z_405_4_0 Z_405_4_1 Z_405_4_2 Z_405_4_3 Z_405_4_4
 Z_405_1_0 Z_405_1_1 Z_405_1_2 Z_405_1_3 Z_405_1_4 Z_405_12_0 Z_405_12_1
 Z_405_12_2 Z_405_12_3 Z_405_12_4 Z_405_7_0 Z_405_7_1 Z_405_7_2 Z_405_7_3
 Z_405_7_4 Z_405_9_0 Z_405_9_1 Z_405_9_2 Z_405_9_3 Z_405_9_4 Z_405_8_0
 Z_405_8_1 Z_405_8_2 Z_405_8_3 Z_405_8_4 Z_295_0_0 Z_295_0_1 Z_295_0_2
 Z_295_0_3 Z_295_0_4 Z_402_0_0 Z_402_0_1 Z_402_0_2 Z_402_0_3 Z_402_0_4
 Z_402_1_0 Z_402_1_1 Z_402_1_2 Z_402_1_3 Z_402_1_4 Z_683_3_0 Z_683_3_1
 Z_683_3_2 Z_683_3_3 Z_683_3_4 Z_683_4_0 Z_683_4_1 Z_683_4_2 Z_683_4_3
 Z_683_4_4 Z_683_5_0 Z_683_5_1 Z_683_5_2 Z_683_5_3 Z_683_5_4 Z_683_2_0
 Z_683_2_1 Z_683_2_2 Z_683_2_3 Z_683_2_4 Z_683_8_0 Z_683_8_1 Z_683_8_2
 Z_683_8_3 Z_683_8_4 Z_683_1_0 Z_683_1_1 Z_683_1_2 Z_683_1_3 Z_683_1_4
 Z_683_7_0 Z_683_7_1 Z_683_7_2 Z_683_7_3 Z_683_7_4 Z_683_6_0 Z_683_6_1
 Z_683_6_2 Z_683_6_3 Z_683_6_4 Z_435_0_0 Z_435_0_1 Z_435_0_2 Z_435_0_3
 Z_435_0_4 Z_93_0_0 Z_93_0_1 Z_93_0_2 Z_93_0_3 Z_93_0_4 Z_502_3_0 Z_502_3_1
 Z_502_3_2 Z_502_3_3 Z_502_3_4 Z_502_4_0 Z_502_4_1 Z_502_4_2 Z_502_4_3
 Z_502_4_4 Z_502_2_0 Z_502_2_1 Z_502_2_2 Z_502_2_3 Z_502_2_4 Z_502_1_0
 Z_502_1_1 Z_502_1_2 Z_502_1_3 Z_502_1_4 Z_502_5_0 Z_502_5_1 Z_502_5_2
 Z_502_5_3 Z_502_5_4
End
